set V:= 1 2 3 4 5 6 7 8 9 10 11;
param: E: w:=
1 2 29
1 5 107
1 6 40
1 7 61
1 8 86
1 10 1
2 3 26
2 6 31
2 7 80
2 8 5
2 9 121
2 10 113
2 11 6
3 4 72
3 5 90
3 6 143
3 7 114
3 8 47
3 9 47
3 11 40
4 6 39
4 7 63
4 8 125
4 11 79
5 8 11
5 9 91
6 7 121
6 8 19
6 9 10
6 11 1
7 8 70
7 10 50
8 9 63
8 10 63
8 11 109
9 11 75;